0 3840
2401 3741
4802 3662
7203 3603
9604 3549
12005 3503
14406 3466
16807 3403
19208 3355
21609 3319
24010 3291
26411 3280
28812 3271
31213 3263
33614 3258
36015 3253
38416 3251
40817 3249
43218 3242
45619 3229
48020 3223
50421 3219
52822 3213
55223 3209
57624 3207
60025 3204
62426 3198
64827 3192
67228 3191
69629 3182
72030 3173
74431 3170
76832 3162
79233 3154
